Start evaluate stage for setting _10000_5_4q_mnl...

Evaluating using MNL with setting tag _10000_5_4q_mnl.
 Results stored at /export/storage_covidvaccine/Result/MNL_partial_new/M5_K10000_4q/HighSchools/

The number of pharmacies opened: 3066, number of HighSchools opened: 969
Is there any fractional number in the final solution z: False
================== MNL_partial_new ==================

sum of pg is 677.72111, sum of z is 4035.0

B/C consideration set, the maximum possible demand in coming round is 28.87436;

Set parameter ServerPassword
Set parameter CSQueueTimeout to value 120
Set parameter CSIdleTimeout to value 60
Set parameter ServerTimeout to value 10
Set parameter TokenServer to value "164.67.163.231"
Set parameter MIPFocus to value 3
Set parameter MIPGap to value 0.005
Set parameter TimeLimit to value 21600
Gurobi Optimizer version 10.0.1 build v10.0.1rc0 (linux64)

CPU model: AMD EPYC 7742 64-Core Processor, instruction set [SSE2|AVX|AVX2]
Thread count: 128 physical cores, 256 logical processors, using up to 32 threads

Optimize a model with 85812375 rows, 42903525 columns and 85838241 nonzeros
Model fingerprint: 0x7b34ac73
Coefficient statistics:
  Matrix range     [2e-01, 9e+03]
  Objective range  [2e-01, 9e+03]
  Bounds range     [1e+00, 1e+00]
  RHS range        [1e+00, 1e+04]
Presolve removed 1298 rows and 0 columns (presolve time = 15s) ...
Presolve removed 85811695 rows and 42872334 columns (presolve time = 25s) ...
Presolve removed 85811695 rows and 42902845 columns (presolve time = 32s) ...
Presolve removed 85811695 rows and 42902845 columns (presolve time = 36s) ...
Presolve removed 85812375 rows and 42903525 columns (presolve time = 40s) ...
Presolve removed 85812375 rows and 42903525 columns
Presolve time: 46.72s
Presolve: All rows and columns removed
Iteration    Objective       Primal Inf.    Dual Inf.      Time
       0    2.7785273e+07   0.000000e+00   0.000000e+00     95s

Solved in 0 iterations and 95.16 seconds (51.24 work units)
Optimal objective  2.778527283e+07
